
Gurobi 11.0.3 (linux64) logging started Wed Nov 12 20:15:31 2025

Set parameter LogFile to value "./log/train/CA_500_600_threads_0/CA_58.lp.log"
Set parameter TimeLimit to value 3600
Gurobi Optimizer version 11.0.3 build v11.0.3rc0 (linux64 - "Ubuntu 22.04.5 LTS")

CPU model: AMD Ryzen 9 9900X 12-Core Processor, instruction set [SSE2|AVX|AVX2|AVX512]
Thread count: 12 physical cores, 24 logical processors, using up to 24 threads

Optimize a model with 603 rows, 600 columns and 3059 nonzeros
Model fingerprint: 0xe83645fd
Variable types: 0 continuous, 600 integer (600 binary)
Coefficient statistics:
  Matrix range     [1e+00, 1e+00]
  Objective range  [9e+00, 1e+03]
  Bounds range     [1e+00, 1e+00]
  RHS range        [1e+00, 1e+00]
Found heuristic solution: objective 18912.494837
Presolve removed 28 rows and 68 columns
Presolve time: 0.01s
Presolved: 575 rows, 532 columns, 3017 nonzeros
Found heuristic solution: objective 22649.957486
Variable types: 0 continuous, 532 integer (532 binary)
Found heuristic solution: objective 23024.822982

Root relaxation: objective 2.961058e+04, 1203 iterations, 0.03 seconds (0.07 work units)

    Nodes    |    Current Node    |     Objective Bounds      |     Work
 Expl Unexpl |  Obj  Depth IntInf | Incumbent    BestBd   Gap | It/Node Time

     0     0 29610.5832    0  297 23024.8230 29610.5832  28.6%     -    0s
H    0     0                    23206.535053 29610.5832  27.6%     -    0s
H    0     0                    23396.987882 29610.5832  26.6%     -    0s
H    0     0                    24951.292911 29610.5832  18.7%     -    0s
H    0     0                    25165.976374 29610.5832  17.7%     -    0s
     0     0 29353.5896    0  305 25165.9764 29353.5896  16.6%     -    0s
     0     0 29225.5113    0  312 25165.9764 29225.5113  16.1%     -    0s
H    0     0                    25315.035955 29225.5113  15.4%     -    0s
     0     0 29225.5113    0  311 25315.0360 29225.5113  15.4%     -    0s
     0     0 29222.2914    0  311 25315.0360 29222.2914  15.4%     -    0s
     0     0 29222.2914    0  311 25315.0360 29222.2914  15.4%     -    0s
H    0     0                    25600.122426 29222.2914  14.1%     -    0s
     0     2 29222.2914    0  311 25600.1224 29222.2914  14.1%     -    0s
H   32    40                    25627.170930 28949.0798  13.0%   265    0s
H   76    86                    25761.956800 28949.0798  12.4%   206    0s
H   88   104                    26548.677782 28949.0798  9.04%   193    0s
H  126   146                    26704.245108 28949.0798  8.41%   173    0s
H  140   146                    26947.475620 28949.0798  7.43%   172    0s
H  154   138                    27051.008320 28949.0798  7.02%   166    0s
H  176   138                    27059.678193 28949.0798  6.98%   151    0s
H  461   269                    27147.449130 28943.6084  6.62%   132    0s

Cutting planes:
  Gomory: 2
  Clique: 29
  BQP: 2

Explored 8241 nodes (785825 simplex iterations) in 2.96 seconds (9.48 work units)
Thread count was 24 (of 24 available processors)

Solution count 10: 27147.4 27059.7 27051 ... 25315

Optimal solution found (tolerance 1.00e-04)
Best objective 2.714744913001e+04, best bound 2.714744913001e+04, gap 0.0000%

User-callback calls 17356, time in user-callback 0.01 sec
